(set-logic ALL)
(declare-fun seed0_T_1 () Bool)
(declare-fun seed0_T_2 () Bool)
(declare-fun seed0_T_3 () Bool)
(declare-fun seed0_T_4 () Bool)
(declare-fun seed0_var_0xINPUT_108999 () String)
(assert (and (or (= seed0_T_1 (= "-" seed0_var_0xINPUT_108999)) (and (str.suffixof (str.++ seed0_var_0xINPUT_108999 "aHprBAICkbvzcUs32gP") (str.++ seed0_var_0xINPUT_108999 "TE6Nj")) (str.<= (str.++ seed0_var_0xINPUT_108999 "E5sPZHJ") (str.++ seed0_var_0xINPUT_108999 "NCTHP3jzZu8q7xnJ2M")))) (or (= seed0_T_2 (not seed0_T_1)) (=> (str.<= (str.++ seed0_var_0xINPUT_108999 "OxiwbJ") (str.++ seed0_var_0xINPUT_108999 "6XWfdZSv1aFKxQLYA")) (str.< (str.++ seed0_var_0xINPUT_108999 "9g") (str.++ seed0_var_0xINPUT_108999 "CD89NIdZyS5w7l4JF2")))) (or seed0_T_2 (=> (str.contains (str.++ seed0_var_0xINPUT_108999 "iLeEDqYp6XVmRvU1") (str.++ seed0_var_0xINPUT_108999 "51")) (str.prefixof (str.++ seed0_var_0xINPUT_108999 "9yGadYou") (str.++ seed0_var_0xINPUT_108999 "MRV7O")))) (or (= seed0_T_3 (= "" seed0_var_0xINPUT_108999)) (xor (str.suffixof (str.++ seed0_var_0xINPUT_108999 "V70z") (str.++ seed0_var_0xINPUT_108999 "fv1yFIi9ZPEOdGsNSR")) (str.<= (str.++ seed0_var_0xINPUT_108999 "WCVmYhA8XpvwuT") (str.++ seed0_var_0xINPUT_108999 "0LxJM4VdUkYWe7Z")))) (or (= seed0_T_4 (not seed0_T_3)) (xor (str.<= (str.++ seed0_var_0xINPUT_108999 "g5fotqPaXBIN") (str.++ seed0_var_0xINPUT_108999 "")) (str.prefixof (str.++ seed0_var_0xINPUT_108999 "U70VGEXLbdR1YHQBP") (str.++ seed0_var_0xINPUT_108999 "xO3ASrb")))) (or seed0_T_4 (str.suffixof (str.++ seed0_var_0xINPUT_108999 "Y9BSAraJpm7") (str.++ seed0_var_0xINPUT_108999 "hzC2wkU75GqTxSOli")))))
(check-sat)
(exit)